c A SAT instance generated from a 2-CNF formula that had 17 clauses and 5 variables
p cnf 5 17
-1 -3 0
-4 -5 0
-2 5 0
-4 1 0
2 -1 0
-1 -5 0
-1 -3 0
-1 -5 0
1 4 0
5 1 0
4 2 0
-5 -3 0
-5 3 0
-4 5 0
-2 4 0
4 -3 0
3 5 0
